(define-fun
  h2
  ((x Int)) Int (- x 1))
(define-fun
  g2
  ((x Int) (y Int)) Int (+ y y))
(define-funs-rec
  ((v2
    ((x Int) (y Int) (z Int)) Int)
   (u2
    ((x Int) (y Int) (z Int)) Int))
  ((ite (<= x 0) z (g2 (u2 (- x 1) y z) (v2 (- x 1) y z)))
   (ite (<= x 0) y (* (u2 (- x 1) y z) (v2 (- x 1) y z)))))
(define-fun
  w2
  ((x Int)) Int (u2 (h2 x) 1 2))
(define-fun
  g0
  ((x Int)) Int (* 2 (- (* x x) x)))
(define-fun
  f1
  ((x Int)) Int (* (* x x) (* x x)))
(define-fun-rec
  u1
  ((x Int) (y Int)) Int (ite (<= x 0) y (f1 (u1 (- x 1) y))))
(define-fun
  v1
  ((x Int)) Int (u1 1 (w2 x)))
(define-fun
  f0
  ((x Int)) Int (+ x x))
(define-fun-rec
  u0
  ((x Int) (y Int)) Int (ite (<= x 0) y (f0 (u0 (- x 1) y))))
(define-fun
  v0
  ((x Int)) Int (u0 (g0 x) 1))
(assert-not
  (forall ((c Int)) (or (not (>= c 0)) (= (v0 c) (v1 c)))))
